RT is False
Default write of storage_offers_DA.csv just to have a file (but constraint should be inactive)
Reading model...
...model read.
creating competitive generators file...
...competitive generators recorded.
Loading data...
.. day-ahead data with real-time VRE data read.
Compiling instance...
...instance created.
Creating Offer Mitigation (model will solve as dispatch if TRUE)...
NOTE: storage offers will not be mitigated
...storage offer mitigation file created
Converting model to MPEC...
...converted
NOTE: initial MIP solve with only storage competitive to get feasible solution
Solving...

Welcome to IBM(R) ILOG(R) CPLEX(R) Interactive Optimizer 12.9.0.0
  with Simplex, Mixed Integer & Barrier Optimizers
5725-A06 5725-A29 5724-Y48 5724-Y49 5724-Y54 5724-Y55 5655-Y21
Copyright IBM Corp. 1988, 2019.  All Rights Reserved.

Type 'help' for a list of available commands.
Type 'help' followed by a command name for more
information on commands.

CPLEX> Logfile 'cplex.log' closed.
Logfile 'C:\Users\llavin\Desktop\test826\logs\tmplu5jdbpx.cplex.log' open.
CPLEX> New value for parallel optimization mode: -1
CPLEX> New value for mixed integer optimality gap tolerance: 0.01
CPLEX> New value for feasibility tolerance: 1e-09
CPLEX> New value for deterministic time limit in ticks: 100000
CPLEX> Problem 'C:\Users\llavin\Desktop\test826\logs\tmp5bm9pc8q.pyomo.lp' read.
Read time = 0.23 sec. (14.72 ticks)
CPLEX> Problem name         : C:\Users\llavin\Desktop\test826\logs\tmp5bm9pc8q.pyomo.lp
Objective sense      : Maximize
Variables            :   53805  [Nneg: 1,  Box: 22000,  Free: 4464,
                                 Binary: 27340]
Objective nonzeros   :    9029
Linear constraints   :  123205  [Less: 41346,  Greater: 59096,  Equal: 22763]
  Nonzeros           :  291753
  RHS nonzeros       :   67495

Variables            : Min LB: -5000.000        Max UB: 1000000.       
Objective nonzeros   : Min   : 0.2250000        Max   : 2500.000       
Linear constraints   :
  Nonzeros           : Min   : 0.2250000        Max   : 1000000.       
  RHS nonzeros       : Min   : 0.2250000        Max   : 1000000.       
CPLEX> CPXPARAM_Parallel                                -1
CPXPARAM_Simplex_Tolerances_Feasibility          1.0000000000000001e-09
CPXPARAM_DetTimeLimit                            100000
CPXPARAM_MIP_Tolerances_MIPGap                   0.01
Tried aggregator 3 times.
MIP Presolve eliminated 88655 rows and 18979 columns.
MIP Presolve added 3380 rows and 0 columns.
MIP Presolve modified 24828 coefficients.
Aggregator did 12991 substitutions.
Reduced MIP has 24939 rows, 21279 columns, and 71133 nonzeros.
Reduced MIP has 8413 binaries, 0 generals, 0 SOSs, and 0 indicators.
Presolve time = 0.27 sec. (168.12 ticks)
Probing fixed 389 vars, tightened 3930 bounds.
Probing time = 0.06 sec. (18.42 ticks)
Tried aggregator 2 times.
MIP Presolve eliminated 880 rows and 781 columns.
MIP Presolve modified 3031 coefficients.
Aggregator did 31 substitutions.
Reduced MIP has 24028 rows, 20467 columns, and 68494 nonzeros.
Reduced MIP has 8023 binaries, 0 generals, 0 SOSs, and 0 indicators.
Presolve time = 0.11 sec. (89.12 ticks)
Probing fixed 0 vars, tightened 237 bounds.
Probing time = 0.14 sec. (22.73 ticks)
Clique table members: 44844.
MIP emphasis: balance optimality and feasibility.
MIP search method: dynamic search.
Parallel mode: opportunistic, using up to 32 threads.
Root relaxation solution time = 0.41 sec. (620.48 ticks)

        Nodes                                         Cuts/
   Node  Left     Objective  IInf  Best Integer    Best Bound    ItCnt     Gap

      0     0     4026.7712   119                   4026.7712     5639         
*     0+    0                         4026.7712     4026.7712             0.00%
      0     0        cutoff           4026.7712     4026.7712     5639    0.00%
Elapsed time = 1.50 sec. (1217.17 ticks, tree = 0.01 MB, solutions = 1)

Root node processing (before b&c):
  Real time             =    1.52 sec. (1219.11 ticks)
Parallel b&c, 32 threads:
  Real time             =    0.00 sec. (0.00 ticks)
  Sync time (average)   =    0.00 sec.
  Wait time (average)   =    0.00 sec.
                          ------------
Total (root+branch&cut) =    1.52 sec. (1219.11 ticks)

Solution pool: 1 solution saved.

MIP - Integer optimal solution:  Objective =  4.0267711980e+03
Solution time =    1.53 sec.  Iterations = 5639  Nodes = 0
Deterministic time = 1219.27 ticks  (795.87 ticks/sec)

CPLEX> Incumbent solution written to file 'C:\Users\llavin\Desktop\test826\logs\tmpycixa_h9.cplex.sol'.
CPLEX> NOTE: no warmstart specified for MIP iteration, default behavior is true
NOTE: resolving with all competitive generators using storage-only solution to warmstart
Solving...

Welcome to IBM(R) ILOG(R) CPLEX(R) Interactive Optimizer 12.9.0.0
  with Simplex, Mixed Integer & Barrier Optimizers
5725-A06 5725-A29 5724-Y48 5724-Y49 5724-Y54 5724-Y55 5655-Y21
Copyright IBM Corp. 1988, 2019.  All Rights Reserved.

Type 'help' for a list of available commands.
Type 'help' followed by a command name for more
information on commands.

CPLEX> Logfile 'cplex.log' closed.
Logfile 'C:\Users\llavin\Desktop\test826\logs\tmpt_zivu_o.cplex.log' open.
CPLEX> New value for parallel optimization mode: -1
CPLEX> New value for mixed integer optimality gap tolerance: 0.01
CPLEX> New value for feasibility tolerance: 1e-09
CPLEX> New value for deterministic time limit in ticks: 100000
CPLEX> Problem 'C:\Users\llavin\Desktop\test826\logs\tmpkf7cjd5p.pyomo.lp' read.
Read time = 0.23 sec. (14.74 ticks)
CPLEX> MIP start file 'C:\Users\llavin\Desktop\test826\logs\tmpomvjm4fj.cplex.mst' read.
CPLEX> Problem name         : C:\Users\llavin\Desktop\test826\logs\tmpkf7cjd5p.pyomo.lp
Objective sense      : Maximize
Variables            :   54525  [Nneg: 1,  Box: 22720,  Free: 4464,
                                 Binary: 27340]
Objective nonzeros   :    9725
Linear constraints   :  123205  [Less: 41346,  Greater: 59096,  Equal: 22763]
  Nonzeros           :  291753
  RHS nonzeros       :   67495

Variables            : Min LB: -5000.000        Max UB: 1000000.       
Objective nonzeros   : Min   : 0.2250000        Max   : 2500.000       
Linear constraints   :
  Nonzeros           : Min   : 0.2250000        Max   : 1000000.       
  RHS nonzeros       : Min   : 0.2250000        Max   : 1000000.       
CPLEX> CPXPARAM_Parallel                                -1
CPXPARAM_Simplex_Tolerances_Feasibility          1.0000000000000001e-09
CPXPARAM_DetTimeLimit                            100000
CPXPARAM_MIP_Tolerances_MIPGap                   0.01
1 of 1 MIP starts provided solutions.
MIP start 'm1' defined initial solution with objective 52522.1519.
Tried aggregator 3 times.
MIP Presolve eliminated 88655 rows and 19699 columns.
MIP Presolve added 3380 rows and 0 columns.
MIP Presolve modified 24828 coefficients.
Aggregator did 12991 substitutions.
Reduced MIP has 24939 rows, 21279 columns, and 71133 nonzeros.
Reduced MIP has 8413 binaries, 0 generals, 0 SOSs, and 0 indicators.
Presolve time = 0.28 sec. (168.48 ticks)
Probing fixed 389 vars, tightened 3930 bounds.
Probing time = 0.06 sec. (18.42 ticks)
Tried aggregator 2 times.
MIP Presolve eliminated 880 rows and 781 columns.
MIP Presolve modified 3031 coefficients.
Aggregator did 31 substitutions.
Reduced MIP has 24028 rows, 20467 columns, and 68494 nonzeros.
Reduced MIP has 8023 binaries, 0 generals, 0 SOSs, and 0 indicators.
Presolve time = 0.11 sec. (89.12 ticks)
Probing fixed 0 vars, tightened 237 bounds.
Probing time = 0.16 sec. (22.73 ticks)
Clique table members: 44844.
MIP emphasis: balance optimality and feasibility.
MIP search method: dynamic search.
Parallel mode: opportunistic, using up to 32 threads.
Root relaxation solution time = 0.47 sec. (685.69 ticks)

        Nodes                                         Cuts/
   Node  Left     Objective  IInf  Best Integer    Best Bound    ItCnt     Gap

*     0+    0                        52522.1519   7.05819e+07              --- 
      0     0    68383.3356   193    52522.1519    68383.3356     6144   30.20%
      0     0    67498.1922    85    52522.1519     Cuts: 312     6282   28.51%
      0     0    67230.3273    81    52522.1519     Cuts: 128     6361   28.00%
      0     0    67167.7890    87    52522.1519     Cuts: 165     6404   27.88%
      0     0    67150.1745    86    52522.1519      Cuts: 45     6434   27.85%
      0     0    67146.3720    86    52522.1519      Cuts: 17     6449   27.84%
      0     0    67145.1836    80    52522.1519      Cuts: 33     6462   27.84%
      0     0    67135.6764    86    52522.1519       Cuts: 9     6470   27.82%
      0     0    67134.7378    89    52522.1519      Cuts: 12     6482   27.82%
      0     0    67134.5082    64    52522.1519       Cuts: 8     6484   27.82%
      0     0    67129.4279    62    52522.1519      Cuts: 42     6501   27.81%
      0     7        cutoff          52522.1519  Impl Bds: 11     6633   27.25%
Elapsed time = 6.00 sec. (3068.67 ticks, tree = 0.02 MB, solutions = 1)
    465    56        cutoff          52522.1519    59730.5311     7509   13.72%
   1108   491        cutoff          52522.1519    59730.5311    12948   13.72%
   1557   755    53501.8899    14    52522.1519    59730.5311    15995   13.72%
   2264  1137    55975.8260    27    52522.1519    59592.4721    21191   13.46%
   3008  1392    54879.8901    23    52522.1519    59588.5439    24376   13.45%
   3702  1957    55778.3940    23    52522.1519    56921.8985    31735    8.38%
   4432  2149    54858.3292    24    52522.1519    56901.3760    34842    8.34%
   5241  2884    54850.8757    30    52522.1519    56898.3189    44613    8.33%
   5977  3197        cutoff          52522.1519    56884.3825    50287    8.31%
   8559  4239    52535.0583     4    52522.1519    56821.1844    70347    8.19%
Elapsed time = 22.52 sec. (6171.20 ticks, tree = 30.88 MB, solutions = 1)
   8569  4784        cutoff          52522.1519    56764.2365    85404    8.08%
   8785    41    55848.6958    37    52522.1519    55721.1688    86915    6.09%
   8900    49    54600.1746    58    52522.1519    55721.1688    87367    6.09%

Cover cuts applied:  8
Implied bound cuts applied:  16
Flow cuts applied:  71
Mixed integer rounding cuts applied:  10
Gomory fractional cuts applied:  11

Root node processing (before b&c):
  Real time             =    4.64 sec. (3053.10 ticks)
Parallel b&c, 32 threads:
  Real time             =   28.69 sec. (8315.15 ticks)
  Sync time (average)   =    5.11 sec.
  Wait time (average)   =    0.24 sec.
                          ------------
Total (root+branch&cut) =   33.33 sec. (11368.24 ticks)

Solution pool: 1 solution saved.

MIP - Integer optimal, tolerance (0.01/1e-06):  Objective =  5.2522151877e+04
Current MIP best bound =  5.3022882917e+04 (gap = 500.731, 0.95%)
Solution time =   33.33 sec.  Iterations = 89179  Nodes = 8909 (61)
Deterministic time = 11368.40 ticks  (341.10 ticks/sec)

CPLEX> Incumbent solution written to file 'C:\Users\llavin\Desktop\test826\logs\tmpu9y405i7.cplex.sol'.
CPLEX> Exporting results... 
